&CONTROL
    calculation = 'relax'
    restart_mode = 'from_scratch'
    prefix = 'Na_Graphene'
    outdir = './outdir/'
    pseudo_dir = './pseudo/'
    tstress = .true.
    tprnfor = .true.
/

&SYSTEM
    ibrav = 4
    a     = 1.23000e+01
    c     = 2.00000e+01
    nat   = 51
    ntyp  = 2
    ecutwfc = 45.0
    ecutrho = 360.0
    occupations = 'smearing'
    smearing = 'mv'
    degauss = 0.02
/

&ELECTRONS
    mixing_beta = 0.4
    conv_thr = 1.0d-6
/

&IONS
    ion_dynamics = 'bfgs'

ATOMIC_SPECIES
    C      12.01070   C.pbe-rrkjus.UPF
    Na     22.98977   Na.pbe-sp-van_ak.UPF

ATOMIC_POSITIONS {angstrom}
C       0.000000   0.000000  10.000000
C       0.000061   1.420246  10.000000
C       2.460000   0.000000  10.000000
C       2.460062   1.420246  10.000000
C       4.920000   0.000000  10.000000
C       4.920061   1.420246  10.000000
C       7.380000   0.000000  10.000000
C       7.380062   1.420246  10.000000
C       9.840000   0.000000  10.000000
C       9.840062   1.420246  10.000000
C      -1.230000   2.130422  10.000000
C      -1.229939   3.550669  10.000000
C       1.230000   2.130422  10.000000
C       1.230062   3.550669  10.000000
C       3.690000   2.130422  10.000000
C       3.690061   3.550669  10.000000
C       6.150000   2.130422  10.000000
C       6.150062   3.550669  10.000000
C       8.610000   2.130422  10.000000
C       8.610062   3.550669  10.000000
C       9.840000   4.260845  10.000000
C      -2.459939   5.681091  10.000000
C       0.000000   4.260845  10.000000
C       0.000062   5.681091  10.000000
C       2.460000   4.260845  10.000000
C       2.460061   5.681091  10.000000
C       4.920000   4.260845  10.000000
C       4.920062   5.681091  10.000000
C       7.380000   4.260845  10.000000
C       7.380062   5.681091  10.000000
C      -3.690000   6.391267  10.000000
C      -3.689939   7.811514  10.000000
C      -1.230000   6.391267  10.000000
C      -1.229939   7.811514  10.000000
C       1.230000   6.391267  10.000000
C       1.230061   7.811514  10.000000
C       3.690000   6.391267  10.000000
C       3.690061   7.811514  10.000000
C       6.150000   6.391267  10.000000
C       6.150062   7.811514  10.000000
C       7.380000   8.521690  10.000000
C      -4.919939   9.941936  10.000000
C      -2.460000   8.521690  10.000000
C      -2.459939   9.941936  10.000000
C       0.000000   8.521690  10.000000
C       0.000061   9.941936  10.000000
C       2.460000   8.521690  10.000000
C       2.460062   9.941936  10.000000
C       4.920000   8.521690  10.000000
C       4.920062   9.941936  10.000000
Na      3.689939   4.971021  12.500000

K_POINTS {automatic}
    3 3 1  0 0 0